Route #1: 2 4 18 26 47 24 16 44
Route #2: 34 48 40 7 9 33 12 27 37
Route #3: 25 49 43 11 36 20 6
Route #4: 32 19 29 28 1
Route #5: 10 35 39 45 41
Route #6: 3 13 23 46 22 38 14
Route #7: 31 5 30
Route #8: 21 8 42 17 15
Cost 1339